##TITLE=Morphine
##JCAMP-DX=4.24
##DATA TYPE=MASS SPECTRUM
##ORIGIN=R RYHAGE MS-LAB KAROLINSKA INSTITUTET STOCKHOLM SWEDEN
##OWNER=NIST Mass Spectrometry Data Center
Collection (C) 2014 copyright by the U.S. Secretary of Commerce
on behalf of the United States of America. All rights reserved.
##CAS REGISTRY NO=57-27-2
##$NIST MASS SPEC NO=42472
##MOLFORM=C17 H19 N O3
##MW=285
##$NIST SOURCE=MSDC
##XUNITS=M/Z
##YUNITS=RELATIVE INTENSITY
##XFACTOR=1
##YFACTOR=1
##FIRSTX=15
##LASTX=287
##FIRSTY=150
##MAXX=287
##MINX=15
##MAXY=9999
##MINY=13
##NPOINTS=249
##PEAK TABLE=(XY..XY)
15,150 17,669 19,20 25,23
26,187 27,456 28,313 29,655
30,243 31,1245 34,13 35,16
36,37 38,97 39,435 40,79
41,659 42,2484 43,613 44,1838
45,386 49,37 50,104 51,303
52,118 53,285 54,104 55,732
56,292 57,694 58,648 59,1675
60,184 62,27 63,215 64,62
65,369 66,118 67,236 68,306
69,285 70,1643 71,261 72,132
73,184 74,376 75,83 76,208
77,571 78,187 79,135 80,139
81,1126 82,421 83,475 84,163
85,170 86,62 87,34 88,118
89,146 90,100 91,407 92,125
93,111 94,690 95,226 96,418
97,212 98,150 99,100 100,37
101,285 102,142 103,250 104,150
105,205 106,55 107,194 108,205
109,456 110,219 111,125 112,306
113,90 114,86 115,788 116,194
117,247 118,118 119,83 120,139
121,97 122,170 123,114 124,1828
125,205 126,114 127,338 128,334
129,289 130,104 131,407 132,121
133,104 134,205 135,111 136,191
137,153 138,111 139,240 140,104
141,300 142,121 143,187 144,327
145,334 146,320 147,327 148,201
149,191 150,128 151,125 152,432
153,289 154,125 155,184 156,65
157,198 158,79 159,142 160,296
161,386 162,2463 163,411 164,498
165,404 166,150 167,170 168,201
169,247 170,132 171,331 172,247
173,502 174,1112 175,372 176,215
177,72 178,121 179,114 180,79
181,512 182,118 183,125 184,236
185,261 186,170 187,175 188,191
189,104 190,128 191,83 192,58
193,93 194,65 195,86 196,156
197,383 198,306 199,268 200,404
201,219 202,300 203,275 204,125
205,146 206,55 207,79 208,55
209,184 210,226 211,313 212,150
213,331 214,442 215,2146 216,819
217,198 218,76 219,48 220,30
221,37 222,65 223,111 224,187
225,160 226,355 227,355 228,645
229,477 230,150 231,83 232,34
233,34 234,23 235,65 236,107
237,86 238,83 239,132 240,226
241,170 242,348 243,100 244,23
245,27 246,23 248,23 250,69
251,20 252,111 253,72 254,121
255,107 256,564 257,177 258,48
259,23 262,20 264,16 265,114
266,341 267,582 268,1189 269,236
270,320 271,97 272,20 275,27
279,16 280,55 281,62 282,153
283,212 284,1639 285,9999 286,1996
287,275
##END=
