##TITLE=9,12,15-Octadecatrienoic acid, (Z,Z,Z)-
##JCAMP-DX=4.24
##DATA TYPE=MASS SPECTRUM
##ORIGIN=NIST Mass Spectrometry Data Center
##OWNER=NIST Mass Spectrometry Data Center
Collection (C) 2014 copyright by the U.S. Secretary of Commerce
on behalf of the United States of America. All rights reserved.
##CAS REGISTRY NO=463-40-1
##$NIST MASS SPEC NO=333201
##MOLFORM=C18 H30 O2
##MW=278
##$NIST SOURCE=MSDC
##XUNITS=M/Z
##YUNITS=RELATIVE INTENSITY
##XFACTOR=1
##YFACTOR=1
##FIRSTX=15
##LASTX=280
##FIRSTY=10
##MAXX=280
##MINX=15
##MAXY=9999
##MINY=10
##NPOINTS=191
##PEAK TABLE=(XY..XY)
15,10 26,20 27,440 28,100
29,701 30,30 31,60 36,10
37,10 38,30 39,1001 40,180
41,4084 42,410 43,1291 44,50
45,601 46,20 47,10 50,50
51,220 52,160 53,1181 54,1151
55,4634 56,400 57,591 58,130
59,190 60,761 61,60 62,10
63,70 64,30 65,921 66,991
67,6246 68,1371 69,1782 70,220
71,300 72,30 73,741 74,80
75,30 77,2282 78,1381 79,9999
80,4604 81,3733 82,1351 83,861
84,230 85,220 86,30 87,240
88,20 89,30 91,2993 92,621
93,5035 94,2082 95,4784 96,941
97,561 98,180 99,100 100,40
101,200 102,40 103,140 104,90
105,891 106,300 107,1962 108,3914
109,1121 110,270 111,210 112,60
113,90 114,60 115,240 116,50
117,300 118,60 119,380 120,180
121,1471 122,811 123,370 124,100
125,90 126,80 127,110 128,50
129,170 130,40 131,250 132,50
133,200 134,100 135,991 136,611
137,160 138,50 139,60 140,60
141,40 142,10 143,60 144,20
145,80 146,20 147,160 148,50
149,641 150,270 151,70 152,50
153,60 154,60 155,20 156,10
157,50 158,20 159,30 160,10
161,60 162,40 163,140 164,70
165,40 166,20 167,50 168,50
169,10 171,40 172,10 173,120
174,20 175,60 176,10 177,40
178,30 179,30 180,20 181,30
182,40 183,10 185,30 186,10
187,10 189,30 190,10 191,40
192,30 193,40 194,30 195,20
196,40 197,10 199,20 203,20
204,10 207,20 208,20 209,160
210,50 211,10 213,20 217,40
218,10 221,30 222,500 223,90
224,70 225,10 231,20 232,10
235,60 236,60 237,30 249,110
250,30 254,10 261,10 263,10
278,210 279,40 280,10
##END=
