##TITLE=9,12-Octadecadienoic acid (Z,Z)-
##JCAMP-DX=4.24
##DATA TYPE=MASS SPECTRUM
##ORIGIN=Japan AIST/NIMC Database- Spectrum MS-NW- 623
##OWNER=NIST Mass Spectrometry Data Center
Collection (C) 2014 copyright by the U.S. Secretary of Commerce
on behalf of the United States of America. All rights reserved.
##CAS REGISTRY NO=60-33-3
##$NIST MASS SPEC NO=229327
##MOLFORM=C18 H32 O2
##MW=280
##$NIST SOURCE=MSDC
##XUNITS=M/Z
##YUNITS=RELATIVE INTENSITY
##XFACTOR=1
##YFACTOR=1
##FIRSTX=15
##LASTX=283
##FIRSTY=50
##MAXX=283
##MINX=15
##MAXY=9999
##MINY=10
##NPOINTS=207
##PEAK TABLE=(XY..XY)
15,50 17,20 18,119 26,50
27,1109 28,249 29,2099 30,50
31,109 38,20 39,1069 40,189
41,5419 42,519 43,1929 44,60
45,379 46,10 47,10 50,20
51,109 52,90 53,909 54,4499
55,5959 56,739 57,949 58,50
59,179 60,599 61,70 63,30
64,10 65,429 66,669 67,9999
68,6029 69,3599 70,599 71,449
72,30 73,549 74,90 75,10
77,739 78,259 79,2269 80,1769
81,8789 82,7309 83,2369 84,579
85,329 86,40 87,229 88,20
89,10 91,609 92,139 93,1049
94,1169 95,6279 96,5479 97,1619
98,499 99,169 100,90 101,269
102,30 103,20 104,30 105,199
106,119 107,629 108,899 109,2949
110,3219 111,769 112,179 113,169
114,169 115,159 116,40 117,60
118,30 119,159 120,119 121,589
122,779 123,1409 124,1689 125,349
126,269 127,259 128,60 129,139
130,20 131,109 132,50 133,199
134,99 135,499 136,689 137,889
138,879 139,209 140,349 141,129
142,30 143,50 144,10 145,70
146,30 147,129 148,60 149,399
150,589 151,569 152,379 153,229
154,319 155,80 156,10 157,40
158,10 159,60 160,20 161,60
162,20 163,189 164,299 165,279
166,189 167,289 168,399 169,70
170,10 171,40 172,10 173,80
174,20 175,30 176,10 177,109
178,149 179,159 180,119 181,259
182,499 183,80 184,10 185,30
186,10 187,60 188,10 189,20
191,70 192,50 193,80 194,50
195,239 196,369 197,60 198,10
199,20 201,20 203,10 205,40
206,30 207,50 208,30 209,209
210,219 211,30 213,30 218,10
219,20 220,169 221,60 222,70
223,169 224,99 225,20 233,10
234,40 235,30 236,30 237,90
238,40 239,10 246,20 251,70
252,30 256,80 257,10 262,119
263,90 264,269 265,80 266,10
276,10 278,70 279,40 280,3549
281,719 282,169 283,20
##END=
