##TITLE=Oleic Acid
##JCAMP-DX=4.24
##DATA TYPE=MASS SPECTRUM
##ORIGIN=NIST Mass Spectrometry Data Center, 1994
##OWNER=NIST Mass Spectrometry Data Center
Collection (C) 2014 copyright by the U.S. Secretary of Commerce
on behalf of the United States of America. All rights reserved.
##CAS REGISTRY NO=112-80-1
##$NIST MASS SPEC NO=134027
##MOLFORM=C18 H34 O2
##MW=282
##$NIST SOURCE=MSDC
##XUNITS=M/Z
##YUNITS=RELATIVE INTENSITY
##XFACTOR=1
##YFACTOR=1
##FIRSTX=15
##LASTX=283
##FIRSTY=123
##MAXX=283
##MINX=15
##MAXY=9999
##MINY=4
##NPOINTS=143
##PEAK TABLE=(XY..XY)
15,123 27,2589 28,405 29,5049
30,111 31,218 39,2187 41,9999
42,1909 43,5953 44,275 45,1230
46,55 51,132 53,1119 54,2546
55,8248 56,2251 57,2414 58,196
59,427 60,1564 61,136 65,291
67,2530 68,1608 69,4251 70,1615
71,832 72,136 73,1047 74,131
77,246 79,695 80,409 81,1700
82,1437 83,2998 84,1604 85,517
86,94 87,375 88,47 91,126
92,4 93,230 94,294 95,974
96,1391 97,2163 98,1221 99,276
100,231 101,293 102,53 105,88
106,22 107,158 108,211 109,609
110,754 111,926 112,387 113,181
114,299 115,150 116,51 119,144
120,76 121,182 122,155 123,445
124,409 125,385 126,170 127,283
128,87 129,152 130,31 133,124
134,113 135,118 136,113 137,325
138,280 139,198 140,103 141,69
143,68 144,22 147,121 149,44
150,59 151,237 152,137 153,90
154,63 155,53 157,36 161,85
162,43 163,62 164,78 165,133
166,167 167,28 168,43 169,60
171,38 172,24 175,83 176,33
177,36 179,142 180,138 181,71
182,30 183,44 185,52 186,40
189,42 193,96 194,72 195,30
199,46 207,52 208,69 209,25
220,162 221,156 222,169 223,50
235,111 236,55 239,30 241,31
246,60 264,581 265,164 266,23
280,28 282,105 283,20
##END=
