##TITLE=Octadecanoic acid
##JCAMP-DX=4.24
##DATA TYPE=MASS SPECTRUM
##ORIGIN=NIST Mass Spectrometry Data Center, 1998.
##OWNER=NIST Mass Spectrometry Data Center
Collection (C) 2014 copyright by the U.S. Secretary of Commerce
on behalf of the United States of America. All rights reserved.
##CAS REGISTRY NO=57-11-4
##$NIST MASS SPEC NO=290961
##MOLFORM=C18 H36 O2
##MW=284
##$NIST SOURCE=MSDC
##XUNITS=M/Z
##YUNITS=RELATIVE INTENSITY
##XFACTOR=1
##YFACTOR=1
##FIRSTX=15
##LASTX=286
##FIRSTY=10
##MAXX=286
##MINX=15
##MAXY=9999
##MINY=10
##NPOINTS=197
##PEAK TABLE=(XY..XY)
15,10 26,30 27,700 29,1950
30,80 31,80 36,10 37,10
38,30 39,840 40,190 41,6889
42,1560 43,9999 44,370 45,850
46,30 47,30 49,10 50,40
51,60 52,40 53,480 54,610
55,8279 56,1990 57,8759 58,440
59,470 60,8819 61,2630 62,100
63,30 64,20 65,100 66,70
67,870 68,640 69,4320 70,1190
71,4290 72,270 73,9429 74,900
75,120 76,20 77,90 78,40
79,250 80,110 81,680 82,670
83,3170 84,1280 85,2850 86,270
87,2070 88,200 89,30 90,10
91,60 92,20 93,190 94,90
95,460 96,570 97,2620 98,1350
99,940 100,140 101,880 102,320
103,30 104,20 105,40 106,20
107,160 108,70 109,270 110,310
111,1250 112,450 113,540 114,80
115,1490 116,780 117,70 118,20
119,20 120,20 121,200 122,60
123,130 124,180 125,540 126,180
127,310 128,60 129,5009 130,580
131,60 132,10 133,20 134,10
135,140 136,40 137,60 138,100
139,250 140,120 141,210 142,40
143,850 144,130 145,40 146,10
147,20 148,10 149,90 150,20
151,30 152,70 153,110 154,80
155,140 156,60 157,380 158,120
159,20 162,10 163,40 164,20
165,20 166,70 167,70 168,50
169,80 170,10 171,900 172,220
173,80 174,10 175,40 177,20
178,10 179,20 180,60 181,50
182,30 183,40 184,10 185,2110
186,300 187,30 190,60 191,10
192,40 193,20 194,30 195,20
196,60 197,20 198,10 199,700
200,110 201,10 205,10 209,20
210,20 211,10 213,280 214,50
215,10 220,10 222,140 223,30
224,50 225,30 226,10 227,550
228,110 229,10 237,10 241,1700
242,290 243,30 248,30 255,270
256,60 265,10 266,10 267,40
268,10 269,10 284,2560 285,520
286,60
##END=
