##TITLE=Uric acid
##JCAMP-DX=4.24
##DATA TYPE=MASS SPECTRUM
##ORIGIN=Japan AIST/NIMC Database- Spectrum MS-NW- 226
##OWNER=NIST Mass Spectrometry Data Center
Collection (C) 2014 copyright by the U.S. Secretary of Commerce
on behalf of the United States of America. All rights reserved.
##CAS REGISTRY NO=69-93-2
##$NIST MASS SPEC NO=228108
##MOLFORM=C5 H4 N4 O3
##MW=168
##$NIST SOURCE=MSDC
##XUNITS=M/Z
##YUNITS=RELATIVE INTENSITY
##XFACTOR=1
##YFACTOR=1
##FIRSTX=12
##LASTX=170
##FIRSTY=209
##MAXX=170
##MINX=12
##MAXY=9999
##MINY=10
##NPOINTS=139
##PEAK TABLE=(XY..XY)
12,209 13,119 14,90 15,379
16,119 17,25 18,199 24,40
25,60 26,609 27,3149 28,3349
29,1359 30,189 32,379 34,60
35,30 36,249 37,50 38,369
39,629 40,569 41,1059 42,2379
43,9999 44,3309 45,199 48,30
49,20 50,129 51,229 52,419
53,1939 54,4109 55,2489 56,399
57,569 58,50 59,40 60,129
61,30 62,99 63,99 64,80
65,189 66,159 67,449 68,339
69,3689 70,1259 71,229 72,90
73,219 74,80 75,60 76,80
77,279 78,129 79,169 80,119
81,519 82,1359 83,459 84,639
85,149 86,40 87,80 88,40
89,50 90,50 91,349 92,149
93,169 94,179 95,249 96,239
97,1929 98,369 99,249 100,109
101,60 102,60 103,159 104,70
105,249 106,60 107,109 108,80
109,149 110,99 111,149 112,139
113,70 114,90 115,139 116,60
117,99 118,80 119,99 120,80
121,60 122,60 123,80 124,269
125,8719 126,569 127,129 128,129
129,139 130,60 131,90 132,60
133,60 134,60 135,99 136,50
137,99 138,50 140,169 141,119
142,80 143,70 144,90 145,60
146,70 147,70 148,50 149,80
150,109 151,70 152,129 153,50
164,60 165,80 166,80 167,119
168,2749 169,201 170,10
##END=
