##TITLE=Fructose
##JCAMP-DX=4.24
##DATA TYPE=MASS SPECTRUM
##ORIGIN=Japan AIST/NIMC Database- Spectrum MS-NW-6323
##OWNER=NIST Mass Spectrometry Data Center
Collection (C) 2014 copyright by the U.S. Secretary of Commerce
on behalf of the United States of America. All rights reserved.
##CAS REGISTRY NO=57-48-7
##$NIST MASS SPEC NO=228156
##MOLFORM=C6 H12 O6
##MW=180
##$NIST SOURCE=MSDC
##XUNITS=M/Z
##YUNITS=RELATIVE INTENSITY
##XFACTOR=1
##YFACTOR=1
##FIRSTX=12
##LASTX=163
##FIRSTY=40
##MAXX=163
##MINX=12
##MAXY=9999
##MINY=10
##NPOINTS=116
##PEAK TABLE=(XY..XY)
12,40 13,90 14,349 15,2179
16,50 17,179 18,659 19,129
24,20 25,80 26,359 27,1269
28,469 29,4069 30,759 31,7399
32,429 33,239 36,20 37,50
38,80 39,479 40,199 41,799
42,2349 43,6589 44,2379 45,2149
46,70 47,259 49,589 50,30
51,40 52,20 53,119 54,149
55,989 56,639 57,2939 58,559
59,539 60,4989 61,4669 62,259
63,30 66,10 67,30 68,379
69,889 70,109 71,2449 72,1999
73,9999 74,789 75,179 76,70
77,599 78,20 79,30 80,10
81,30 82,20 83,109 84,90
85,1389 86,1479 87,279 88,60
89,449 90,749 91,279 92,20
94,10 95,30 96,40 97,149
98,80 99,40 100,30 101,229
102,239 103,2679 104,229 105,50
107,20 109,20 110,20 111,10
113,319 114,60 115,99 116,40
117,10 119,149 120,30 121,109
122,10 125,10 126,60 127,60
128,20 129,10 131,589 132,99
133,99 134,10 136,10 143,10
144,99 145,60 146,20 149,819
150,50 151,10 162,20 163,30
##END=
