##TITLE=Maltose
##JCAMP-DX=4.24
##DATA TYPE=MASS SPECTRUM
##ORIGIN=RADIAN CORP
##OWNER=NIST Mass Spectrometry Data Center
Collection (C) 2014 copyright by the U.S. Secretary of Commerce
on behalf of the United States of America. All rights reserved.
##CAS REGISTRY NO=69-79-4
##$NIST MASS SPEC NO=76359
##MOLFORM=C12 H22 O11
##MW=342
##$NIST SOURCE=MSDC
##XUNITS=M/Z
##YUNITS=RELATIVE INTENSITY
##XFACTOR=1
##YFACTOR=1
##FIRSTX=15
##LASTX=221
##FIRSTY=90
##MAXX=221
##MINX=15
##MAXY=9999
##MINY=10
##NPOINTS=148
##PEAK TABLE=(XY..XY)
15,90 16,30 17,230 18,1270
19,200 25,10 26,120 27,500
28,590 29,2320 30,370 31,2360
32,270 33,30 36,80 37,120
38,240 39,1170 40,230 41,1860
42,1600 43,4330 44,3510 45,1980
46,220 47,540 48,10 49,190
50,160 51,300 52,200 53,700
54,380 55,2140 56,1480 57,4570
58,870 59,450 60,7400 61,3180
62,170 63,50 64,20 65,60
66,70 67,220 68,500 69,3070
70,1060 71,2680 72,770 73,9999
74,1290 75,180 76,50 77,270
78,30 79,100 80,150 81,570
82,130 83,290 84,330 85,2740
86,850 87,1020 88,120 89,360
90,110 91,570 92,30 93,30
94,30 95,660 96,690 97,3630
98,930 99,480 100,100 101,620
102,420 103,680 104,50 105,20
107,20 108,30 109,510 110,440
111,120 112,70 113,430 114,210
115,480 116,230 117,50 119,150
120,20 121,40 122,10 123,90
124,70 125,180 126,1080 127,890
128,370 129,80 130,10 131,420
132,100 133,240 134,30 135,20
137,30 138,20 139,50 140,30
141,20 142,20 143,70 144,590
145,950 146,110 147,30 149,60
150,10 151,20 152,10 153,10
155,50 156,20 157,30 161,40
162,60 163,370 164,30 165,20
169,20 173,220 174,30 175,20
191,210 192,20 193,20 203,10
204,20 207,20 215,10 221,20
##END=
